&CONTROL
  calculation='relax',
  prefix='calc',
  pseudo_dir='/home/alatimer/bin/psp/esp_psp_w_gbrvRu/',
  outdir='.',
  tefield=.true.,
  dipfield=.true.,
  tprnfor=.true.,
/
&SYSTEM
  ibrav=0,
  celldm(1)=1.8897261245650618d0,
  nat=36,
  ntyp=1,
  ecutwfc=44.099188549d0,
  ecutrho=440.99188549d0,
  nbnd=262,
  occupations='smearing',
  smearing='fd',
  degauss=0.00734986475817d0,
  nspin=2,
  starting_magnetization(1)=0.444444444444d0,
  input_dft='RPBE',
  edir=3,
  emaxpos=0.104398465053d0,
  eopreg=0.025d0,
  eamp=0.0d0,
/
&ELECTRONS
  diagonalization='david',
  conv_thr=7.34986475817e-07,
  mixing_ndim=10,
  electron_maxstep=500,
  mixing_beta=0.1d0,
  conv_thr=7.34986475817e-07,
/
&IONS
  ion_dynamics='ase3',
/
CELL_PARAMETERS
    4.342424579655932d0     0.000000000000000d0     0.000000000000000d0
    0.000000000000000d0     5.318362233338380d0     0.000000000000000d0
    0.000000000000000d0     0.000000000000000d0    37.629356089620728d0
ATOMIC_SPECIES
Co1 58.9332d0 Co.UPF
ATOMIC_POSITIONS {crystal}
Co1      0.279460323157730d0     0.163385067433444d0     0.780869450148165d0
Co1      0.253958453078248d0     0.548712127262514d0     0.738358222218424d0
Co1      0.289417424827959d0     0.795206364488006d0     0.783596988818093d0
Co1      0.658805377685573d0     0.992567872031463d0     0.760079975495827d0
Co1      0.693201428345117d0     0.333251236130874d0     0.735071283255421d0
Co1      0.700102063647695d0     0.667300729785954d0     0.728289170840451d0
Co1      0.382784800337935d0     0.160574353877062d0     0.681715499700659d0
Co1      0.427259274350736d0     0.507743281532790d0     0.662317932515653d0
Co1      0.310084697266186d0     0.823805726174761d0     0.688668759126896d0
Co1      0.971347398702544d0     0.058251709385849d0     0.716192030995305d0
Co1      0.984230959892271d0     0.277517461857056d0     0.652533308332440d0
Co1      0.988019932898385d0     0.672556278918977d0     0.648152228443594d0
Co1      0.655341714947486d0     0.182775829736159d0     0.593425225089019d0
Co1      0.848830932866530d0     0.484559620514873d0     0.604278804663590d0
Co1      0.670270608750682d0     0.832555448908283d0     0.603326091497932d0
Co1      0.174940640032801d0     0.032645398604456d0     0.599465177052905d0
Co1      0.246251227517661d0     0.278361909315972d0     0.545496273510392d0
Co1      0.257186804749347d0     0.688065215444887d0     0.541698293277562d0
Co1      0.666666666666667d0     0.166666666666667d0     0.493199994662517d0
Co1      0.666666666666667d0     0.500000000000000d0     0.493199994662517d0
Co1      0.666666666666667d0     0.833333333333333d0     0.493199994662517d0
Co1      0.333333333333333d0     0.000000000000000d0     0.479599983987550d0
Co1      0.333333333333333d0     0.333333333333333d0     0.479599983987550d0
Co1      0.333333333333333d0     0.666666666666667d0     0.479599983987550d0
Co1      0.000000000000000d0     0.166666666666667d0     0.465999973312583d0
Co1      0.000000000000000d0     0.500000000000000d0     0.465999973312583d0
Co1      0.000000000000000d0     0.833333333333333d0     0.465999973312583d0
Co1      0.666666666666667d0     0.000000000000000d0     0.452399962637616d0
Co1      0.666666666666667d0     0.333333333333333d0     0.452399962637616d0
Co1      0.666666666666667d0     0.666666666666667d0     0.452399962637616d0
Co1      0.333333333333333d0     0.166666666666667d0     0.438799951962649d0
Co1      0.333333333333333d0     0.500000000000000d0     0.438799951962649d0
Co1      0.333333333333333d0     0.833333333333333d0     0.438799951962649d0
Co1      0.000000000000000d0     0.000000000000000d0     0.425199941287682d0
Co1      0.000000000000000d0     0.333333333333333d0     0.425199941287682d0
Co1      0.000000000000000d0     0.666666666666667d0     0.425199941287682d0
K_POINTS automatic
3 3 1 0 0 0
