&CONTROL
  calculation='relax',
  prefix='calc',
  pseudo_dir='/home/alatimer/bin/psp/esp_psp_w_gbrvRu/',
  outdir='.',
  tefield=.true.,
  dipfield=.true.,
  tprnfor=.true.,
/
&SYSTEM
  ibrav=0,
  celldm(1)=1.8897261245650618d0,
  nat=37,
  ntyp=2,
  ecutwfc=44.099188549d0,
  ecutrho=440.99188549d0,
  nbnd=283,
  occupations='smearing',
  smearing='fd',
  degauss=0.00734986475817d0,
  nspin=2,
  starting_magnetization(1)=0.3d0,
  starting_magnetization(2)=0.5d0,
  input_dft='RPBE',
  edir=3,
  emaxpos=0.0330767129067d0,
  eopreg=0.025d0,
  eamp=0.0d0,
/
&ELECTRONS
  diagonalization='david',
  conv_thr=7.34986475817e-07,
  mixing_ndim=10,
  electron_maxstep=500,
  mixing_beta=0.1d0,
  conv_thr=7.34986475817e-07,
/
&IONS
  ion_dynamics='ase3',
/
CELL_PARAMETERS
    7.548010990508820d0     0.000000000000000d0     0.000000000000000d0
   -3.774005495254409d0     6.536769265824781d0     0.000000000000000d0
    0.000000000000000d0     0.000000000000000d0    21.162925166555350d0
ATOMIC_SPECIES
Ni1 58.6934d0 Ni.UPF
O1 15.9994d0 O.UPF
ATOMIC_POSITIONS {crystal}
Ni1      0.000000000000000d0     0.000000000000000d0     0.354393352571721d0
Ni1      0.222222222222222d0     0.111111111111111d0     0.451464450857240d0
Ni1      0.111111111111111d0     0.222222222222222d0     0.548535549142759d0
Ni1      0.333333333333333d0     0.333333333333333d0     0.645606647428279d0
Ni1      0.000000000000000d0     0.333333333333333d0     0.354393352571721d0
Ni1      0.222222222222222d0     0.444444444444444d0     0.451464450857240d0
Ni1      0.111111111111111d0     0.555555555555556d0     0.548535549142759d0
Ni1      0.333333333333333d0     0.666666666666667d0     0.645606647428279d0
Ni1      0.000000000000000d0     0.666666666666667d0     0.354393352571721d0
Ni1      0.222222222222222d0     0.777777777777778d0     0.451464450857240d0
Ni1      0.111111111111111d0     0.888888888888889d0     0.548535549142759d0
Ni1      0.333333333333333d0     1.000000000000000d0     0.645606647428279d0
Ni1      0.333333333333333d0     0.000000000000000d0     0.354393352571721d0
Ni1      0.555555555555555d0     0.111111111111111d0     0.451464450857240d0
Ni1      0.444444444444444d0     0.222222222222222d0     0.548535549142759d0
Ni1      0.666666666666667d0     0.333333333333333d0     0.645606647428279d0
Ni1      0.333333333333333d0     0.333333333333333d0     0.354393352571721d0
Ni1      0.555555555555555d0     0.444444444444444d0     0.451464450857240d0
Ni1      0.444444444444444d0     0.555555555555556d0     0.548535549142759d0
Ni1      0.666666666666667d0     0.666666666666667d0     0.645606647428279d0
Ni1      0.333333333333333d0     0.666666666666667d0     0.354393352571721d0
Ni1      0.555555555555555d0     0.777777777777778d0     0.451464450857240d0
Ni1      0.444444444444444d0     0.888888888888889d0     0.548535549142759d0
Ni1      0.666666666666666d0     1.000000000000000d0     0.645606647428279d0
Ni1      0.666666666666667d0     0.000000000000000d0     0.354393352571721d0
Ni1      0.888888888888889d0     0.111111111111111d0     0.451464450857240d0
Ni1      0.777777777777778d0     0.222222222222222d0     0.548535549142759d0
Ni1      1.000000000000000d0     0.333333333333333d0     0.645606647428279d0
Ni1      0.666666666666667d0     0.333333333333333d0     0.354393352571721d0
Ni1      0.888888888888889d0     0.444444444444444d0     0.451464450857240d0
Ni1      0.777777777777778d0     0.555555555555556d0     0.548535549142759d0
Ni1      1.000000000000000d0     0.666666666666667d0     0.645606647428279d0
Ni1      0.666666666666667d0     0.666666666666667d0     0.354393352571721d0
Ni1      0.888888888888889d0     0.777777777777778d0     0.451464450857240d0
Ni1      0.777777777777778d0     0.888888888888889d0     0.548535549142759d0
Ni1      1.000000000000000d0     1.000000000000000d0     0.645606647428279d0
O1       0.555555555555555d0     0.444444444444444d0     0.711760073241667d0
K_POINTS automatic
3 3 1 0 0 0
