&CONTROL
  calculation='relax',
  prefix='calc',
  pseudo_dir='/home/alatimer/bin/psp/esp_psp_w_gbrvRu/',
  outdir='.',
  tefield=.true.,
  dipfield=.true.,
  tprnfor=.true.,
/
&SYSTEM
  ibrav=0,
  celldm(1)=1.8897261245650618d0,
  nat=37,
  ntyp=2,
  ecutwfc=44.099188549d0,
  ecutrho=440.99188549d0,
  nbnd=283,
  occupations='smearing',
  smearing='fd',
  degauss=0.00734986475817d0,
  nspin=2,
  starting_magnetization(1)=0.3d0,
  starting_magnetization(2)=0.5d0,
  input_dft='RPBE',
  edir=3,
  emaxpos=0.0d0,
  eopreg=0.025d0,
  eamp=0.0d0,
/
&ELECTRONS
  diagonalization='david',
  conv_thr=7.34986475817e-07,
  mixing_ndim=10,
  electron_maxstep=500,
  mixing_beta=0.1d0,
  conv_thr=7.34986475817e-07,
/
&IONS
  ion_dynamics='ase3',
/
CELL_PARAMETERS
    6.162925166561844d0     0.000000000000000d0     0.000000000000000d0
    0.000000000000000d0     7.548010990516772d0     0.000000000000000d0
    0.000000000000000d0     0.000000000000000d0    39.989384658238706d0
ATOMIC_SPECIES
Ni1 58.6934d0 Ni.UPF
O1 15.9994d0 O.UPF
ATOMIC_POSITIONS {crystal}
Ni1      0.000000000000000d0     0.166666666666667d0     0.599893818403539d0
Ni1      0.000000000000000d0     0.500000000000000d0     0.599893818403539d0
Ni1      0.000000000000000d0     0.833333333333333d0     0.599893818403539d0
Ni1      0.666666666666667d0     0.000000000000000d0     0.581731305966532d0
Ni1      0.666666666666667d0     0.333333333333333d0     0.581731305966532d0
Ni1      0.666666666666667d0     0.666666666666667d0     0.581731305966532d0
Ni1      0.333333333333333d0     0.166666666666667d0     0.563568793529525d0
Ni1      0.333333333333333d0     0.500000000000000d0     0.563568793529525d0
Ni1      0.333333333333333d0     0.833333333333333d0     0.563568793529525d0
Ni1      0.000000000000000d0     0.000000000000000d0     0.545406281092518d0
Ni1      0.000000000000000d0     0.333333333333333d0     0.545406281092518d0
Ni1      0.000000000000000d0     0.666666666666667d0     0.545406281092518d0
Ni1      0.666666666666667d0     0.166666666666667d0     0.527243768655511d0
Ni1      0.666666666666667d0     0.500000000000000d0     0.527243768655511d0
Ni1      0.666666666666667d0     0.833333333333333d0     0.527243768655511d0
Ni1      0.333333333333333d0     0.000000000000000d0     0.509081256218504d0
Ni1      0.333333333333333d0     0.333333333333333d0     0.509081256218504d0
Ni1      0.333333333333333d0     0.666666666666667d0     0.509081256218504d0
Ni1      0.000000000000000d0     0.166666666666667d0     0.490918743781496d0
Ni1      0.000000000000000d0     0.500000000000000d0     0.490918743781496d0
Ni1      0.000000000000000d0     0.833333333333333d0     0.490918743781496d0
Ni1      0.666666666666667d0     0.000000000000000d0     0.472756231344490d0
Ni1      0.666666666666667d0     0.333333333333333d0     0.472756231344490d0
Ni1      0.666666666666667d0     0.666666666666667d0     0.472756231344490d0
Ni1      0.333333333333333d0     0.166666666666667d0     0.454593718907482d0
Ni1      0.333333333333333d0     0.500000000000000d0     0.454593718907482d0
Ni1      0.333333333333333d0     0.833333333333333d0     0.454593718907482d0
Ni1      0.000000000000000d0     0.000000000000000d0     0.436431206470475d0
Ni1      0.000000000000000d0     0.333333333333333d0     0.436431206470475d0
Ni1      0.000000000000000d0     0.666666666666667d0     0.436431206470475d0
Ni1      0.666666666666667d0     0.166666666666667d0     0.418268694033468d0
Ni1      0.666666666666667d0     0.500000000000000d0     0.418268694033468d0
Ni1      0.666666666666667d0     0.833333333333333d0     0.418268694033468d0
Ni1      0.333333333333333d0     0.000000000000000d0     0.400106181596461d0
Ni1      0.333333333333333d0     0.333333333333333d0     0.400106181596461d0
Ni1      0.333333333333333d0     0.666666666666667d0     0.400106181596461d0
O1       0.324418530849892d0     0.346666479110140d0     0.594892390041745d0
K_POINTS automatic
3 3 1 0 0 0
