&CONTROL
  calculation='relax',
  prefix='calc',
  pseudo_dir='/home/alatimer/bin/psp/esp_psp_w_gbrvRu/',
  outdir='.',
  tefield=.true.,
  dipfield=.true.,
  tprnfor=.true.,
/
&SYSTEM
  ibrav=0,
  celldm(1)=1.8897261245650618d0,
  nat=37,
  ntyp=2,
  ecutwfc=44.099188549d0,
  ecutrho=440.99188549d0,
  nbnd=264,
  occupations='smearing',
  smearing='fd',
  degauss=0.00734986475817d0,
  nspin=2,
  starting_magnetization(1)=0.444444444444d0,
  starting_magnetization(2)=1.0d0,
  input_dft='RPBE',
  edir=3,
  emaxpos=0.0042550780141d0,
  eopreg=0.025d0,
  eamp=0.0d0,
/
&ELECTRONS
  diagonalization='david',
  conv_thr=7.34986475817e-07,
  mixing_ndim=10,
  electron_maxstep=500,
  mixing_beta=0.1d0,
  conv_thr=7.34986475817e-07,
/
&IONS
  ion_dynamics='ase3',
/
CELL_PARAMETERS
    6.191574198133643d0     0.000000000000000d0     0.000000000000000d0
    0.000000000000000d0     7.583098745004669d0     0.000000000000000d0
    0.000000000000000d0     0.000000000000000d0    40.026524186486597d0
ATOMIC_SPECIES
Co1 58.9332d0 Co.UPF
C1 12.011d0 C.UPF
ATOMIC_POSITIONS {crystal}
Co1      0.666666666666667d0     0.166666666666667d0     0.600265066098300d0
Co1      0.666666666666667d0     0.500000000000000d0     0.600265066098300d0
Co1      0.666666666666667d0     0.833333333333333d0     0.600265066098300d0
Co1      0.333333333333333d0     0.000000000000000d0     0.582035054080427d0
Co1      0.333333333333333d0     0.333333333333333d0     0.582035054080427d0
Co1      0.333333333333333d0     0.666666666666667d0     0.582035054080427d0
Co1      0.000000000000000d0     0.166666666666667d0     0.563805042062555d0
Co1      0.000000000000000d0     0.500000000000000d0     0.563805042062555d0
Co1      0.000000000000000d0     0.833333333333333d0     0.563805042062555d0
Co1      0.666666666666667d0     0.000000000000000d0     0.545575030044682d0
Co1      0.666666666666667d0     0.333333333333333d0     0.545575030044682d0
Co1      0.666666666666667d0     0.666666666666667d0     0.545575030044682d0
Co1      0.333333333333333d0     0.166666666666667d0     0.527345018026809d0
Co1      0.333333333333333d0     0.500000000000000d0     0.527345018026809d0
Co1      0.333333333333333d0     0.833333333333333d0     0.527345018026809d0
Co1      0.000000000000000d0     0.000000000000000d0     0.509115006008936d0
Co1      0.000000000000000d0     0.333333333333333d0     0.509115006008936d0
Co1      0.000000000000000d0     0.666666666666667d0     0.509115006008936d0
Co1      0.666666666666667d0     0.166666666666667d0     0.490884993991064d0
Co1      0.666666666666667d0     0.500000000000000d0     0.490884993991064d0
Co1      0.666666666666667d0     0.833333333333333d0     0.490884993991064d0
Co1      0.333333333333333d0     0.000000000000000d0     0.472654981973191d0
Co1      0.333333333333333d0     0.333333333333333d0     0.472654981973191d0
Co1      0.333333333333333d0     0.666666666666667d0     0.472654981973191d0
Co1      0.000000000000000d0     0.166666666666667d0     0.454424969955318d0
Co1      0.000000000000000d0     0.500000000000000d0     0.454424969955318d0
Co1      0.000000000000000d0     0.833333333333333d0     0.454424969955318d0
Co1      0.666666666666667d0     0.000000000000000d0     0.436194957937445d0
Co1      0.666666666666667d0     0.333333333333333d0     0.436194957937445d0
Co1      0.666666666666667d0     0.666666666666667d0     0.436194957937445d0
Co1      0.333333333333333d0     0.166666666666667d0     0.417964945919572d0
Co1      0.333333333333333d0     0.500000000000000d0     0.417964945919572d0
Co1      0.333333333333333d0     0.833333333333333d0     0.417964945919572d0
Co1      0.000000000000000d0     0.000000000000000d0     0.399734933901700d0
Co1      0.000000000000000d0     0.333333333333333d0     0.399734933901700d0
Co1      0.000000000000000d0     0.666666666666667d0     0.399734933901700d0
C1       0.000000000000000d0     0.166666666666667d0     0.608775222126496d0
K_POINTS automatic
3 3 1 0 0 0
