&CONTROL
  calculation='relax',
  prefix='calc',
  pseudo_dir='/home/alatimer/bin/psp/esp_psp_w_gbrvRu/',
  outdir='.',
  tefield=.true.,
  dipfield=.true.,
  tprnfor=.true.,
/
&SYSTEM
  ibrav=0,
  celldm(1)=1.8897261245650618d0,
  nat=37,
  ntyp=2,
  ecutwfc=44.099188549d0,
  ecutrho=440.99188549d0,
  nbnd=283,
  occupations='smearing',
  smearing='fd',
  degauss=0.00734986475817d0,
  nspin=2,
  starting_magnetization(1)=0.3d0,
  starting_magnetization(2)=0.5d0,
  input_dft='RPBE',
  edir=3,
  emaxpos=0.00455215485675d0,
  eopreg=0.025d0,
  eamp=0.0d0,
/
&ELECTRONS
  diagonalization='david',
  conv_thr=7.34986475817e-07,
  mixing_ndim=10,
  electron_maxstep=500,
  mixing_beta=0.1d0,
  conv_thr=7.34986475817e-07,
/
&IONS
  ion_dynamics='ase3',
/
CELL_PARAMETERS
    6.162925166561844d0     0.000000000000000d0     0.000000000000000d0
    0.000000000000000d0     7.548010990516772d0     0.000000000000000d0
    0.000000000000000d0     0.000000000000000d0    39.989384658238706d0
ATOMIC_SPECIES
Ni1 58.6934d0 Ni.UPF
O1 15.9994d0 O.UPF
ATOMIC_POSITIONS {crystal}
Ni1      0.019582133525816d0     0.166870717469787d0     0.600059896432871d0
Ni1      0.995285047747452d0     0.502941868544078d0     0.598388542501993d0
Ni1      0.995270142242238d0     0.830551103938005d0     0.598345956148848d0
Ni1      0.671208677369351d0     0.000189421910727d0     0.581948922073947d0
Ni1      0.670563539932999d0     0.332824898618006d0     0.582055374407543d0
Ni1      0.669737003050306d0     0.666749816890195d0     0.581445602737525d0
Ni1      0.340754873672760d0     0.166123674506151d0     0.564481995801999d0
Ni1      0.334136924994854d0     0.504606633020008d0     0.563762765208968d0
Ni1      0.334051564990190d0     0.828966849274272d0     0.563777833740559d0
Ni1      0.998017139053981d0     0.998966453033032d0     0.545671782475365d0
Ni1      0.997707161823249d0     0.334460716632539d0     0.545649357940771d0
Ni1      0.001323202087957d0     0.666669985666612d0     0.546074535808823d0
Ni1      0.664602082247690d0     0.166647728235574d0     0.527082117473558d0
Ni1      0.665189904193992d0     0.499701174405400d0     0.527318580856550d0
Ni1      0.665159145477960d0     0.833683114662095d0     0.527322501812436d0
Ni1      0.332487849996821d0     0.000797345236830d0     0.509206182258716d0
Ni1      0.332493556937975d0     0.332508990956649d0     0.509189797604061d0
Ni1      0.333079356210667d0     0.666646165838730d0     0.509027795799472d0
Ni1      0.000000000000000d0     0.166666666666667d0     0.490918743781496d0
Ni1      0.000000000000000d0     0.500000000000000d0     0.490918743781496d0
Ni1      0.000000000000000d0     0.833333333333333d0     0.490918743781496d0
Ni1      0.666666666666667d0     0.000000000000000d0     0.472756231344490d0
Ni1      0.666666666666667d0     0.333333333333333d0     0.472756231344490d0
Ni1      0.666666666666667d0     0.666666666666667d0     0.472756231344490d0
Ni1      0.333333333333333d0     0.166666666666667d0     0.454593718907482d0
Ni1      0.333333333333333d0     0.500000000000000d0     0.454593718907482d0
Ni1      0.333333333333333d0     0.833333333333333d0     0.454593718907482d0
Ni1      0.000000000000000d0     0.000000000000000d0     0.436431206470475d0
Ni1      0.000000000000000d0     0.333333333333333d0     0.436431206470475d0
Ni1      0.000000000000000d0     0.666666666666667d0     0.436431206470475d0
Ni1      0.666666666666667d0     0.166666666666667d0     0.418268694033468d0
Ni1      0.666666666666667d0     0.500000000000000d0     0.418268694033468d0
Ni1      0.666666666666667d0     0.833333333333333d0     0.418268694033468d0
Ni1      0.333333333333333d0     0.000000000000000d0     0.400106181596461d0
Ni1      0.333333333333333d0     0.333333333333333d0     0.400106181596461d0
Ni1      0.333333333333333d0     0.666666666666667d0     0.400106181596461d0
O1       0.302233798143666d0     0.174566954460764d0     0.608998128117042d0
K_POINTS automatic
3 3 1 0 0 0
