&CONTROL
  calculation='relax',
  prefix='calc',
  pseudo_dir='/home/vossj/suncat/esdld/psp',
  outdir='.',
  tprnfor=.true.,
/
&SYSTEM
  ibrav=0,
  celldm(1)=1.8897261245650618d0,
  nat=1,
  ntyp=1,
  ecutwfc=44.099188549d0,
  ecutrho=440.99188549d0,
  nbnd=15,
  occupations='smearing',
  smearing='fd',
  degauss=0.00734986475817d0,
  nspin=2,
  starting_magnetization(1)=0.2d0,
  input_dft='RPBE',
/
&ELECTRONS
  diagonalization='david',
  conv_thr=7.34986475817e-07,
  mixing_ndim=10,
  electron_maxstep=200,
  mixing_beta=0.1d0,
  conv_thr=7.34986475817e-07,
/
&IONS
  ion_dynamics='ase3',
/
CELL_PARAMETERS
    0.000000000000000d0     1.779083251953125d0     1.779083251953125d0
    1.779083251953125d0     0.000000000000000d0     1.779083251953125d0
    1.779083251953125d0     1.779083251953125d0     0.000000000000000d0
ATOMIC_SPECIES
Ni1 58.6934d0 Ni.UPF
ATOMIC_POSITIONS {crystal}
Ni1      0.000000000000000d0     0.000000000000000d0    -0.000000000000000d0
K_POINTS automatic
11 11 11 0 0 0
